
Gurobi 12.0.2 (win64) logging started Sat Feb  7 07:32:24 2026

Set parameter LogFile to value "gurobi_stats_logs\m30n10\sample_data_10_size_10_PCP.log"
Set parameter MIPGap to value 0.01
Set parameter TimeLimit to value 0
Gurobi Optimizer version 12.0.2 build v12.0.2rc0 (win64 - Windows 11+.0 (26200.2))

CPU model: AMD Ryzen 7 8845H w/ Radeon 780M Graphics, instruction set [SSE2|AVX|AVX2|AVX512]
Thread count: 8 physical cores, 16 logical processors, using up to 16 threads

Non-default parameters:
TimeLimit  0
MIPGap  0.01

Optimize a model with 268196 rows, 19511 columns and 1091272 nonzeros
Model fingerprint: 0x9b99fc2a
Variable types: 14681 continuous, 4830 integer (4830 binary)
Coefficient statistics:
  Matrix range     [1e-02, 3e+00]
  Objective range  [2e-03, 7e-02]
  Bounds range     [1e+00, 1e+00]
  RHS range        [3e-02, 3e+00]

Explored 0 nodes (0 simplex iterations) in 0.01 seconds (0.00 work units)
Thread count was 1 (of 16 available processors)

Solution count 0

Time limit reached
Best objective -, best bound -, gap -

Gurobi 12.0.2 (win64) logging started Sat Feb  7 07:47:58 2026

Set parameter LogFile to value "gurobi_stats_logs\m30n10\sample_data_10_size_10_PCP.log"
Set parameter MIPGap to value 0.01
Set parameter TimeLimit to value 0
Gurobi Optimizer version 12.0.2 build v12.0.2rc0 (win64 - Windows 11+.0 (26200.2))

CPU model: AMD Ryzen 7 8845H w/ Radeon 780M Graphics, instruction set [SSE2|AVX|AVX2|AVX512]
Thread count: 8 physical cores, 16 logical processors, using up to 16 threads

Non-default parameters:
TimeLimit  0
MIPGap  0.01

Optimize a model with 268196 rows, 19511 columns and 1091272 nonzeros
Model fingerprint: 0x9b99fc2a
Variable types: 14681 continuous, 4830 integer (4830 binary)
Coefficient statistics:
  Matrix range     [1e-02, 3e+00]
  Objective range  [2e-03, 7e-02]
  Bounds range     [1e+00, 1e+00]
  RHS range        [3e-02, 3e+00]

Explored 0 nodes (0 simplex iterations) in 0.00 seconds (0.00 work units)
Thread count was 1 (of 16 available processors)

Solution count 0

Time limit reached
Best objective -, best bound -, gap -
